c FILE /home/rafael/Documents/HappySet/MIHS/inputs/happygen/output/graph_d_regular_k2_p0.4_v100_20241127_084003.txt
c SOURCE This is a d-regular graph formed for the happy graph colouring problem.
c DESCRIPTION It was generated using the problem generator of Rhyd Lewis
c
c GRAPH STATS
c Seed                             = -1926308508
c Number of Nodes                  = 100
c Number of colours k              = 2
c Number of pre-assignments        = 40
c Degree of all vertices           = 6
c Density                          = 0.0606061
c 
c The degrees of nodes 1 to 100, respectively, are as follows 
c [6, 6, 6, 6, 6, 6, 6, 6, 6, 6, 6, 6, 6, 6, 6, 6, 6, 6, 6, 6, 6, 6, 6, 6, 6, 6, 
c  6, 6, 6, 6, 6, 6, 6, 6, 6, 6, 6, 6, 6, 6, 6, 6, 6, 6, 6, 6, 6, 6, 6, 6, 6, 
c  6, 6, 6, 6, 6, 6, 6, 6, 6, 6, 6, 6, 6, 6, 6, 6, 6, 6, 6, 6, 6, 6, 6, 6, 6, 
c  6, 6, 6, 6, 6, 6, 6, 6, 6, 6, 6, 6, 6, 6, 6, 6, 6, 6, 6, 6, 6, 6, 6, 6] 
c  
p edge 100 300 2
e 1 17
e 1 56
e 1 75
e 1 81
e 1 84
e 1 91
e 2 4
e 2 29
e 2 34
e 2 41
e 2 61
e 2 85
e 3 6
e 3 16
e 3 58
e 3 64
e 3 70
e 3 80
e 4 41
e 4 70
e 4 87
e 4 91
e 4 98
e 5 20
e 5 28
e 5 33
e 5 63
e 5 66
e 5 83
e 6 25
e 6 26
e 6 27
e 6 43
e 6 46
e 7 11
e 7 19
e 7 37
e 7 44
e 7 58
e 7 96
e 8 15
e 8 27
e 8 36
e 8 49
e 8 84
e 8 95
e 9 27
e 9 30
e 9 32
e 9 34
e 9 62
e 9 100
e 10 17
e 10 26
e 10 42
e 10 48
e 10 81
e 10 83
e 11 31
e 11 36
e 11 48
e 11 65
e 11 97
e 12 18
e 12 19
e 12 29
e 12 75
e 12 89
e 12 98
e 13 15
e 13 24
e 13 47
e 13 48
e 13 54
e 13 72
e 14 15
e 14 34
e 14 55
e 14 87
e 14 93
e 14 96
e 15 23
e 15 60
e 15 88
e 16 37
e 16 59
e 16 69
e 16 73
e 16 80
e 17 18
e 17 41
e 17 73
e 17 94
e 18 19
e 18 51
e 18 70
e 18 90
e 19 32
e 19 88
e 19 98
e 20 29
e 20 52
e 20 59
e 20 63
e 20 77
e 21 35
e 21 56
e 21 57
e 21 58
e 21 63
e 21 87
e 22 31
e 22 50
e 22 60
e 22 80
e 22 91
e 22 93
e 23 37
e 23 46
e 23 54
e 23 92
e 23 97
e 24 33
e 24 59
e 24 75
e 24 92
e 24 95
e 25 28
e 25 35
e 25 62
e 25 68
e 25 86
e 26 28
e 26 60
e 26 70
e 26 76
e 27 40
e 27 45
e 27 53
e 28 43
e 28 55
e 28 61
e 29 68
e 29 80
e 29 89
e 30 37
e 30 66
e 30 86
e 30 90
e 30 94
e 31 32
e 31 35
e 31 45
e 31 75
e 32 52
e 32 69
e 32 91
e 33 58
e 33 60
e 33 71
e 33 91
e 34 35
e 34 37
e 34 71
e 35 42
e 35 79
e 36 41
e 36 51
e 36 95
e 36 99
e 37 59
e 38 48
e 38 61
e 38 65
e 38 67
e 38 82
e 38 90
e 39 42
e 39 46
e 39 54
e 39 55
e 39 67
e 39 87
e 40 55
e 40 65
e 40 68
e 40 79
e 40 84
e 41 47
e 41 58
e 42 62
e 42 76
e 42 100
e 43 62
e 43 64
e 43 74
e 43 94
e 44 51
e 44 57
e 44 73
e 44 75
e 44 81
e 45 74
e 45 95
e 45 97
e 45 100
e 46 55
e 46 61
e 46 65
e 47 60
e 47 66
e 47 86
e 47 92
e 48 56
e 48 100
e 49 50
e 49 66
e 49 78
e 49 92
e 49 99
e 50 54
e 50 66
e 50 92
e 50 95
e 51 53
e 51 54
e 51 56
e 52 61
e 52 63
e 52 72
e 52 84
e 53 59
e 53 72
e 53 81
e 53 91
e 54 64
e 55 93
e 56 74
e 56 76
e 57 67
e 57 78
e 57 80
e 57 89
e 58 97
e 59 79
e 60 71
e 61 82
e 62 79
e 62 88
e 63 72
e 63 80
e 64 65
e 64 67
e 64 85
e 65 96
e 66 83
e 67 90
e 67 97
e 68 77
e 68 86
e 68 97
e 69 77
e 69 79
e 69 86
e 69 99
e 70 77
e 70 99
e 71 78
e 71 83
e 71 90
e 72 76
e 72 77
e 73 86
e 73 98
e 73 100
e 74 82
e 74 87
e 74 98
e 75 83
e 76 79
e 76 84
e 77 90
e 78 85
e 78 89
e 78 100
e 81 82
e 81 85
e 82 89
e 82 98
e 83 88
e 84 88
e 85 87
e 85 99
e 88 96
e 89 94
e 92 95
e 93 94
e 93 96
e 93 99
e 94 96
n 1 1
n 2 1
n 8 2
n 11 2
n 13 1
n 14 1
n 17 1
n 18 1
n 23 1
n 24 1
n 25 1
n 28 1
n 29 1
n 30 2
n 32 2
n 35 1
n 44 1
n 45 2
n 49 2
n 51 1
n 53 1
n 54 1
n 58 2
n 59 1
n 60 2
n 61 1
n 62 1
n 65 2
n 67 2
n 71 2
n 74 2
n 76 2
n 77 2
n 80 1
n 81 1
n 83 2
n 89 1
n 93 1
n 98 2
n 100 2
